
<<< setup


<<< generate

Version identifier: 12.10.0.0 | 2019-11-26 | 843d4de2ae
CPXPARAM_TimeLimit                               1200
Tried aggregator 2 times.
MIP Presolve eliminated 5177746 rows and 2944038 columns.
MIP Presolve modified 414000 coefficients.
Aggregator did 1478 substitutions.
Reduced MIP has 71426 rows, 73534 columns, and 446448 nonzeros.
Reduced MIP has 73484 binaries, 0 generals, 0 SOSs, and 0 indicators.
Presolve time = 5.91 sec. (3780.40 ticks)
Found incumbent of value 0.000000 after 8.30 sec. (4740.31 ticks)
Probing time = 0.28 sec. (30.29 ticks)
Tried aggregator 1 time.
Detecting symmetries...
Reduced MIP has 71426 rows, 73534 columns, and 446448 nonzeros.
Reduced MIP has 73484 binaries, 0 generals, 0 SOSs, and 0 indicators.
Presolve time = 0.63 sec. (351.79 ticks)
Probing time = 0.17 sec. (25.71 ticks)
Clique table members: 250782.
MIP emphasis: balance optimality and feasibility.
MIP search method: dynamic search.
Parallel mode: deterministic, using up to 4 threads.
Root relaxation solution time = 2.74 sec. (1615.70 ticks)

        Nodes                                         Cuts/
   Node  Left     Objective  IInf  Best Integer    Best Bound    ItCnt     Gap

*     0+    0                            0.0000   142080.0000              --- 
      0     0   142080.0000  1043        0.0000   142080.0000     8533     --- 
      0     0   142080.0000  1043        0.0000      Cuts: 71    32125     --- 
      0     0   142080.0000  1043        0.0000    Cuts: 9994    54713     --- 
      0     0   142080.0000  1043        0.0000     Cuts: 704    85673     --- 
Heuristic still looking.
Heuristic still looking.
      0     2   142080.0000  1004        0.0000   142080.0000   126896     --- 
Elapsed time = 872.78 sec. (579139.37 ticks, tree = 0.02 MB, solutions = 1)
      1     3   142080.0000   786        0.0000   142080.0000   157973     --- 
      2     3   142080.0000   808        0.0000   142080.0000   159741     --- 
      3     5   142080.0000   824        0.0000   142080.0000   210881     --- 
      4     4   142080.0000   808        0.0000   142080.0000   184624     --- 
      5     4   142080.0000   815        0.0000   142080.0000   177601     --- 
      6     7   142080.0000  1019        0.0000   142080.0000   261503     --- 
      7     9   142080.0000  1194        0.0000   142080.0000   285792     --- 
      8    10   142080.0000  1162        0.0000   142080.0000   290576     --- 
      9    11   142080.0000  1105        0.0000   142080.0000   292725     --- 
     10    12   142080.0000  1032        0.0000   142080.0000   293263     --- 
Elapsed time = 1126.97 sec. (707517.63 ticks, tree = 0.19 MB, solutions = 1)
     11     6   142080.0000   849        0.0000   142080.0000   227390     --- 
     12    13   142080.0000   953        0.0000   142080.0000   294034     --- 
     15    16   142080.0000  1024        0.0000   142080.0000   298852     --- 
Starting limited solution polishing.
     18    19   142080.0000  1025        0.0000   142080.0000   303706     --- 
     19    20   142080.0000  1047        0.0000   142080.0000   307339     --- 
     21    10   142080.0000  1018        0.0000   142080.0000   304754     --- 
     23    11   142080.0000  1186        0.0000   142080.0000   312029     --- 
*    24+    3                         2365.0000   142080.0000              --- 
     26     8   142080.0000   848     2365.0000   142080.0000   278109     --- 
     28    11   142080.0000   939     2365.0000   142080.0000   322473     --- 
     29    14   142080.0000  1047     2365.0000   142080.0000   314221     --- 
Elapsed time = 1169.69 sec. (724757.16 ticks, tree = 0.26 MB, solutions = 1)
     31    13   142080.0000   977     2365.0000   142080.0000   341201     --- 
     34    17   142080.0000  1054     2365.0000   142080.0000   318928     --- 
     35    14   142080.0000   885     2365.0000   142080.0000   342641     --- 
     38    20   142080.0000  1029     2365.0000   142080.0000   323687     --- 
     40    21   142080.0000  1072     2365.0000   142080.0000   326897     --- 
     42    16   142080.0000  1014     2365.0000   142080.0000   345907     --- 
     46    25   142080.0000  1087     2365.0000   142080.0000   332125     --- 
     50     5   142080.0000   861     2365.0000   142080.0000   209314     --- 
     56    25   142080.0000  1053     2365.0000   142080.0000   316259     --- 
     60    27   142080.0000  1005     2365.0000   142080.0000   317635     --- 
Elapsed time = 1200.24 sec. (739049.88 ticks, tree = 0.68 MB, solutions = 2)
     64    29   142080.0000  1047     2365.0000   142080.0000   320268     --- 
     67    34   142080.0000  1046     2365.0000   142080.0000   345990     --- 
     68    31   142080.0000   966     2365.0000   142080.0000   321070     --- 
     70    32   142080.0000  1056     2365.0000   142080.0000   323143     --- 

Clique cuts applied:  2
Implied bound cuts applied:  770
Flow cuts applied:  44
Mixed integer rounding cuts applied:  10
Gomory fractional cuts applied:  1

Root node processing (before b&c):
  Real time             =  801.33 sec. (520084.68 ticks)
Parallel b&c, 4 threads:
  Real time             =  399.30 sec. (226178.86 ticks)
  Sync time (average)   =  124.94 sec.
  Wait time (average)   =    0.00 sec.
                          ------------
Total (root+branch&cut) = 1200.63 sec. (746263.54 ticks)

<<< solve


OBJECTIVE: 2365

<<< post process


<<< done

